39 39
1 3
9 8
4 5
5 8
2 9
10 10
3 8
7 3
1 8
2 10
1 9
6 1
9 6
7 4
8 6
10 4
9 3
4 10
1 4
5 9
3 1
4 3
6 8
6 4
6 9
2 8
2 10
5 5
7 7
10 10
5 8
8 7
8 8
3 7
9 6
7 4
5 2
5 1
1 7
15 14 51
10 20 59
17 20 85
20 10 94
14 16 86
16 11 53
19 13 66
12 10 69
14 11 61
16 10 79
12 12 95
17 20 78
19 11 74
16 20 56
20 12 71
18 12 92
19 20 61
20 11 82
10 13 71
16 10 72
17 20 78
17 14 96
16 12 51
19 14 72
10 14 70
20 14 97
10 12 73
13 18 97
10 18 96
15 15 82
18 14 76
13 12 72
12 13 59
16 10 93
15 20 93
13 20 93
12 15 89
17 20 56
16 19 56
